rcpsp/heur_output_or_constraints/Log=10/heurj30.txt
encoding rcpsp/j30.sm/j3039_1.sm nv: 88236 nc: 189402 enctime: 1.34
encoding rcpsp/j30.sm/j3039_1.sm nv: 29754 nc: 62976 enctime: 0.37
c File: j3039_1.smnaiveor10.wcnf
c optimal
c final solution cost: 51
c CPU time: 0.295407
s OPTIMUM FOUND

c File: j3039_1.smor10.wcnf
c optimal
c final solution cost: 51
c CPU time: 0.069745
s OPTIMUM FOUND


rcpsp/heur_output_or_constraints/Log=10/heurj30.txt
encoding rcpsp/j30.sm/j3039_2.sm nv: 66825 nc: 147688 enctime: 1.07
encoding rcpsp/j30.sm/j3039_2.sm nv: 23085 nc: 50164 enctime: 0.30
c File: j3039_2.smnaiveor10.wcnf
c optimal
c final solution cost: 54
c CPU time: 0.232359
s OPTIMUM FOUND

c File: j3039_2.smor10.wcnf
c optimal
c final solution cost: 54
c CPU time: 0.053147
s OPTIMUM FOUND


rcpsp/heur_output_or_constraints/Log=10/heurj30.txt
encoding rcpsp/j30.sm/j3039_3.sm nv: 79292 nc: 173856 enctime: 1.20
encoding rcpsp/j30.sm/j3039_3.sm nv: 25355 nc: 54633 enctime: 0.38
c File: j3039_3.smnaiveor10.wcnf
c optimal
c final solution cost: 54
c CPU time: 0.304141
s OPTIMUM FOUND

c File: j3039_3.smor10.wcnf
c optimal
c final solution cost: 54
c CPU time: 0.054921
s OPTIMUM FOUND


rcpsp/heur_output_or_constraints/Log=10/heurj30.txt
encoding rcpsp/j30.sm/j3039_4.sm nv: 81984 nc: 181104 enctime: 1.24
encoding rcpsp/j30.sm/j3039_4.sm nv: 24640 nc: 53360 enctime: 0.31
c File: j3039_4.smnaiveor10.wcnf
c optimal
c final solution cost: 53
c CPU time: 0.289594
s OPTIMUM FOUND

c File: j3039_4.smor10.wcnf
c optimal
c final solution cost: 53
c CPU time: 0.066309
s OPTIMUM FOUND


rcpsp/heur_output_or_constraints/Log=10/heurj30.txt
encoding rcpsp/j30.sm/j3039_5.sm nv: 76230 nc: 165011 enctime: 1.11
encoding rcpsp/j30.sm/j3039_5.sm nv: 24024 nc: 51107 enctime: 0.30
c File: j3039_5.smnaiveor10.wcnf
c optimal
c final solution cost: 51
c CPU time: 0.254670
s OPTIMUM FOUND

c File: j3039_5.smor10.wcnf
c optimal
c final solution cost: 51
c CPU time: 0.047642
s OPTIMUM FOUND


rcpsp/heur_output_or_constraints/Log=10/heurj30.txt
encoding rcpsp/j30.sm/j3039_6.sm nv: 83536 nc: 187237 enctime: 1.34
encoding rcpsp/j30.sm/j3039_6.sm nv: 29510 nc: 65143 enctime: 0.46
c File: j3039_6.smnaiveor10.wcnf
c optimal
c final solution cost: 64
c CPU time: 0.313834
s OPTIMUM FOUND

c File: j3039_6.smor10.wcnf
c optimal
c final solution cost: 64
c CPU time: 0.078420
s OPTIMUM FOUND


rcpsp/heur_output_or_constraints/Log=10/heurj30.txt
encoding rcpsp/j30.sm/j3039_7.sm nv: 50820 nc: 108015 enctime: 0.72
encoding rcpsp/j30.sm/j3039_7.sm nv: 19250 nc: 40365 enctime: 0.23
c File: j3039_7.smnaiveor10.wcnf
c optimal
c final solution cost: 49
c CPU time: 0.162445
s OPTIMUM FOUND

c File: j3039_7.smor10.wcnf
c optimal
c final solution cost: 49
c CPU time: 0.040205
s OPTIMUM FOUND


rcpsp/heur_output_or_constraints/Log=10/heurj30.txt
encoding rcpsp/j30.sm/j3039_8.sm nv: 96279 nc: 214009 enctime: 1.53
encoding rcpsp/j30.sm/j3039_8.sm nv: 30656 nc: 67008 enctime: 0.39
c File: j3039_8.smnaiveor10.wcnf
c optimal
c final solution cost: 63
c CPU time: 0.331180
s OPTIMUM FOUND

c File: j3039_8.smor10.wcnf
c optimal
c final solution cost: 63
c CPU time: 0.063535
s OPTIMUM FOUND


rcpsp/heur_output_or_constraints/Log=10/heurj30.txt
encoding rcpsp/j30.sm/j3039_9.sm nv: 84606 nc: 184375 enctime: 1.30
encoding rcpsp/j30.sm/j3039_9.sm nv: 29158 nc: 62575 enctime: 0.37
c File: j3039_9.smnaiveor10.wcnf
c optimal
c final solution cost: 60
c CPU time: 0.301162
s OPTIMUM FOUND

c File: j3039_9.smor10.wcnf
c optimal
c final solution cost: 60
c CPU time: 0.073373
s OPTIMUM FOUND


rcpsp/heur_output_or_constraints/Log=10/heurj30.txt
encoding rcpsp/j30.sm/j303_9.sm nv: 20670 nc: 55289 enctime: 0.43
encoding rcpsp/j30.sm/j303_9.sm nv: 9100 nc: 23694 enctime: 0.12
c File: j303_9.smnaiveor10.wcnf
c optimal
c final solution cost: 65
c CPU time: 0.163352
s OPTIMUM FOUND

c File: j303_9.smor10.wcnf
c optimal
c final solution cost: 65
c CPU time: 0.041763
s OPTIMUM FOUND


rcpsp/heur_output_or_constraints/Log=10/heurj30.txt
encoding rcpsp/j30.sm/j3040_10.sm nv: 88247 nc: 190857 enctime: 1.36
encoding rcpsp/j30.sm/j3040_10.sm nv: 25636 nc: 54459 enctime: 0.32
c File: j3040_10.smnaiveor10.wcnf
c optimal
c final solution cost: 51
c CPU time: 0.297661
s OPTIMUM FOUND

c File: j3040_10.smor10.wcnf
c optimal
c final solution cost: 51
c CPU time: 0.051269
s OPTIMUM FOUND


rcpsp/heur_output_or_constraints/Log=10/heurj30.txt
encoding rcpsp/j30.sm/j3040_1.sm nv: 78752 nc: 173863 enctime: 1.27
encoding rcpsp/j30.sm/j3040_1.sm nv: 22256 nc: 48067 enctime: 0.28
c File: j3040_1.smnaiveor10.wcnf
c optimal
c final solution cost: 49
c CPU time: 0.280214
s OPTIMUM FOUND

c File: j3040_1.smor10.wcnf
c optimal
c final solution cost: 49
c CPU time: 0.049988
s OPTIMUM FOUND


rcpsp/heur_output_or_constraints/Log=10/heurj30.txt
encoding rcpsp/j30.sm/j3040_2.sm nv: 82560 nc: 177846 enctime: 1.28
encoding rcpsp/j30.sm/j3040_2.sm nv: 27360 nc: 58016 enctime: 0.34
c File: j3040_2.smnaiveor10.wcnf
c optimal
c final solution cost: 56
c CPU time: 0.275170
s OPTIMUM FOUND

c File: j3040_2.smor10.wcnf
c optimal
c final solution cost: 56
c CPU time: 0.054734
s OPTIMUM FOUND


rcpsp/heur_output_or_constraints/Log=10/heurj30.txt
encoding rcpsp/j30.sm/j3040_3.sm nv: 96117 nc: 200384 enctime: 1.37
encoding rcpsp/j30.sm/j3040_3.sm nv: 34626 nc: 71325 enctime: 0.42
c File: j3040_3.smnaiveor10.wcnf
c optimal
c final solution cost: 57
c CPU time: 0.271188
s OPTIMUM FOUND

c File: j3040_3.smor10.wcnf
c optimal
c final solution cost: 57
c CPU time: 0.069455
s OPTIMUM FOUND


rcpsp/heur_output_or_constraints/Log=10/heurj30.txt
encoding rcpsp/j30.sm/j3040_4.sm nv: 86768 nc: 188845 enctime: 1.36
encoding rcpsp/j30.sm/j3040_4.sm nv: 28594 nc: 61287 enctime: 0.36
c File: j3040_4.smnaiveor10.wcnf
c optimal
c final solution cost: 57
c CPU time: 0.283258
s OPTIMUM FOUND

c File: j3040_4.smor10.wcnf
c optimal
c final solution cost: 57
c CPU time: 0.057498
s OPTIMUM FOUND


rcpsp/heur_output_or_constraints/Log=10/heurj30.txt
encoding rcpsp/j30.sm/j3040_5.sm nv: 82948 nc: 181010 enctime: 1.27
encoding rcpsp/j30.sm/j3040_5.sm nv: 28892 nc: 62110 enctime: 0.42
c File: j3040_5.smnaiveor10.wcnf
c optimal
c final solution cost: 61
c CPU time: 0.280443
s OPTIMUM FOUND

c File: j3040_5.smor10.wcnf
c optimal
c final solution cost: 61
c CPU time: 0.059408
s OPTIMUM FOUND


rcpsp/heur_output_or_constraints/Log=10/heurj30.txt
encoding rcpsp/j30.sm/j3040_6.sm nv: 80995 nc: 174864 enctime: 1.20
encoding rcpsp/j30.sm/j3040_6.sm nv: 29585 nc: 63034 enctime: 0.43
c File: j3040_6.smnaiveor10.wcnf
c optimal
c final solution cost: 60
c CPU time: 0.258338
s OPTIMUM FOUND

c File: j3040_6.smor10.wcnf
c optimal
c final solution cost: 60
c CPU time: 0.059999
s OPTIMUM FOUND


rcpsp/heur_output_or_constraints/Log=10/heurj30.txt
encoding rcpsp/j30.sm/j3040_7.sm nv: 91872 nc: 194428 enctime: 1.37
encoding rcpsp/j30.sm/j3040_7.sm nv: 24816 nc: 51553 enctime: 0.31
c File: j3040_7.smnaiveor10.wcnf
c optimal
c final solution cost: 46
c CPU time: 0.292353
s OPTIMUM FOUND

c File: j3040_7.smor10.wcnf
c optimal
c final solution cost: 46
c CPU time: 0.047955
s OPTIMUM FOUND


rcpsp/heur_output_or_constraints/Log=10/heurj30.txt
encoding rcpsp/j30.sm/j3040_8.sm nv: 83304 nc: 180499 enctime: 1.30
encoding rcpsp/j30.sm/j3040_8.sm nv: 27144 nc: 57859 enctime: 0.34
c File: j3040_8.smnaiveor10.wcnf
c optimal
c final solution cost: 57
c CPU time: 0.282819
s OPTIMUM FOUND

c File: j3040_8.smor10.wcnf
c optimal
c final solution cost: 57
c CPU time: 0.055009
s OPTIMUM FOUND


rcpsp/heur_output_or_constraints/Log=10/heurj30.txt
encoding rcpsp/j30.sm/j3040_9.sm nv: 87420 nc: 192239 enctime: 1.41
encoding rcpsp/j30.sm/j3040_9.sm nv: 27435 nc: 59240 enctime: 0.34
c File: j3040_9.smnaiveor10.wcnf
c optimal
c final solution cost: 56
c CPU time: 0.303005
s OPTIMUM FOUND

c File: j3040_9.smor10.wcnf
c optimal
c final solution cost: 56
c CPU time: 0.062231
s OPTIMUM FOUND


rcpsp/heur_output_or_constraints/Log=10/heurj30.txt
encoding rcpsp/j30.sm/j304_10.sm nv: 23542 nc: 60371 enctime: 0.45
encoding rcpsp/j30.sm/j304_10.sm nv: 6258 nc: 15247 enctime: 0.07
c File: j304_10.smnaiveor10.wcnf
c optimal
c final solution cost: 41
c CPU time: 0.115264
s OPTIMUM FOUND

c File: j304_10.smor10.wcnf
c optimal
c final solution cost: 41
c CPU time: 0.013295
s OPTIMUM FOUND


rcpsp/heur_output_or_constraints/Log=10/heurj30.txt
encoding rcpsp/j30.sm/j3041_10.sm nv: 100096 nc: 219436 enctime: 1.51
encoding rcpsp/j30.sm/j3041_10.sm nv: 57664 nc: 125758 enctime: 0.80
c File: j3041_10.smnaiveor10.wcnf
c timeout
c final solution cost: 97
c CPU time: 60.266478
s UNKNOWN

c File: j3041_10.smor10.wcnf
c timeout
c final solution cost: 97
c CPU time: 60.126262
s UNKNOWN


rcpsp/heur_output_or_constraints/Log=10/heurj30.txt
encoding rcpsp/j30.sm/j3041_1.sm nv: 93879 nc: 203876 enctime: 1.35
encoding rcpsp/j30.sm/j3041_1.sm nv: 51057 nc: 110276 enctime: 0.69
c File: j3041_1.smnaiveor10.wcnf
c optimal
c final solution cost: 85
c CPU time: 3.699458
s OPTIMUM FOUND

c File: j3041_1.smor10.wcnf
c optimal
c final solution cost: 85
c CPU time: 1.056888
s OPTIMUM FOUND


rcpsp/heur_output_or_constraints/Log=10/heurj30.txt
encoding rcpsp/j30.sm/j3041_2.sm nv: 99932 nc: 213393 enctime: 1.44
encoding rcpsp/j30.sm/j3041_2.sm nv: 55986 nc: 119004 enctime: 0.76
c File: j3041_2.smnaiveor10.wcnf
c optimal
c final solution cost: 83
c CPU time: 28.768776
s OPTIMUM FOUND

c File: j3041_2.smor10.wcnf
c optimal
c final solution cost: 83
c CPU time: 17.416492
s OPTIMUM FOUND


rcpsp/heur_output_or_constraints/Log=10/heurj30.txt
encoding rcpsp/j30.sm/j3041_3.sm nv: 83468 nc: 179191 enctime: 1.16
encoding rcpsp/j30.sm/j3041_3.sm nv: 49864 nc: 106589 enctime: 0.66
c File: j3041_3.smnaiveor10.wcnf
c optimal
c final solution cost: 85
c CPU time: 5.165566
s OPTIMUM FOUND

c File: j3041_3.smor10.wcnf
c optimal
c final solution cost: 85
c CPU time: 3.210154
s OPTIMUM FOUND


rcpsp/heur_output_or_constraints/Log=10/heurj30.txt
encoding rcpsp/j30.sm/j3041_4.sm nv: 93024 nc: 196824 enctime: 1.27
encoding rcpsp/j30.sm/j3041_4.sm nv: 51680 nc: 108832 enctime: 0.67
c File: j3041_4.smnaiveor10.wcnf
c optimal
c final solution cost: 74
c CPU time: 8.102088
s OPTIMUM FOUND

c File: j3041_4.smor10.wcnf
c optimal
c final solution cost: 74
c CPU time: 6.136012
s OPTIMUM FOUND


rcpsp/heur_output_or_constraints/Log=10/heurj30.txt
encoding rcpsp/j30.sm/j3041_5.sm nv: 117537 nc: 260154 enctime: 1.81
encoding rcpsp/j30.sm/j3041_5.sm nv: 60216 nc: 132444 enctime: 0.85
c File: j3041_5.smnaiveor10.wcnf
c optimal
c final solution cost: 94
c CPU time: 6.312527
s OPTIMUM FOUND

c File: j3041_5.smor10.wcnf
c optimal
c final solution cost: 94
c CPU time: 2.473853
s OPTIMUM FOUND


rcpsp/heur_output_or_constraints/Log=10/heurj30.txt
encoding rcpsp/j30.sm/j3041_6.sm nv: 76908 nc: 166224 enctime: 1.06
encoding rcpsp/j30.sm/j3041_6.sm nv: 54230 nc: 116866 enctime: 0.75
c File: j3041_6.smnaiveor10.wcnf
c optimal
c final solution cost: 102
c CPU time: 29.238178
s OPTIMUM FOUND

c File: j3041_6.smor10.wcnf
c optimal
c final solution cost: 102
c CPU time: 42.174989
s OPTIMUM FOUND


rcpsp/heur_output_or_constraints/Log=10/heurj30.txt
encoding rcpsp/j30.sm/j3041_7.sm nv: 105014 nc: 228431 enctime: 1.61
encoding rcpsp/j30.sm/j3041_7.sm nv: 68663 nc: 148862 enctime: 0.98
c File: j3041_7.smnaiveor10.wcnf
c optimal
c final solution cost: 92
c CPU time: 12.764311
s OPTIMUM FOUND

c File: j3041_7.smor10.wcnf
c optimal
c final solution cost: 92
c CPU time: 10.382257
s OPTIMUM FOUND


rcpsp/heur_output_or_constraints/Log=10/heurj30.txt
encoding rcpsp/j30.sm/j3041_8.sm nv: 114204 nc: 247911 enctime: 1.71
encoding rcpsp/j30.sm/j3041_8.sm nv: 58330 nc: 125880 enctime: 0.81
c File: j3041_8.smnaiveor10.wcnf
c timeout
c final solution cost: 86
c CPU time: 60.289319
s UNKNOWN

c File: j3041_8.smor10.wcnf
c optimal
c final solution cost: 86
c CPU time: 58.621331
s OPTIMUM FOUND


rcpsp/heur_output_or_constraints/Log=10/heurj30.txt
encoding rcpsp/j30.sm/j3041_9.sm nv: 91348 nc: 196146 enctime: 1.32
encoding rcpsp/j30.sm/j3041_9.sm nv: 59599 nc: 127518 enctime: 0.81
c File: j3041_9.smnaiveor10.wcnf
c optimal
c final solution cost: 90
c CPU time: 23.810167
s OPTIMUM FOUND

c File: j3041_9.smor10.wcnf
c optimal
c final solution cost: 90
c CPU time: 12.721962
s OPTIMUM FOUND


rcpsp/heur_output_or_constraints/Log=10/heurj30.txt
encoding rcpsp/j30.sm/j304_1.sm nv: 24310 nc: 57994 enctime: 0.42
encoding rcpsp/j30.sm/j304_1.sm nv: 8500 nc: 19678 enctime: 0.09
c File: j304_1.smnaiveor10.wcnf
c optimal
c final solution cost: 49
c CPU time: 0.104254
s OPTIMUM FOUND

c File: j304_1.smor10.wcnf
c optimal
c final solution cost: 49
c CPU time: 0.018770
s OPTIMUM FOUND


rcpsp/heur_output_or_constraints/Log=10/heurj30.txt
encoding rcpsp/j30.sm/j3042_10.sm nv: 142020 nc: 297680 enctime: 2.02
encoding rcpsp/j30.sm/j3042_10.sm nv: 51285 nc: 106550 enctime: 0.61
c File: j3042_10.smnaiveor10.wcnf
c optimal
c final solution cost: 60
c CPU time: 0.471298
s OPTIMUM FOUND

c File: j3042_10.smor10.wcnf
c optimal
c final solution cost: 60
c CPU time: 0.175002
s OPTIMUM FOUND


rcpsp/heur_output_or_constraints/Log=10/heurj30.txt
encoding rcpsp/j30.sm/j3042_1.sm nv: 151226 nc: 312497 enctime: 2.05
encoding rcpsp/j30.sm/j3042_1.sm nv: 57393 nc: 117827 enctime: 0.66
c File: j3042_1.smnaiveor10.wcnf
c optimal
c final solution cost: 58
c CPU time: 0.423129
s OPTIMUM FOUND

c File: j3042_1.smor10.wcnf
c optimal
c final solution cost: 58
c CPU time: 0.129138
s OPTIMUM FOUND


rcpsp/heur_output_or_constraints/Log=10/heurj30.txt
encoding rcpsp/j30.sm/j3042_2.sm nv: 140275 nc: 287944 enctime: 1.85
encoding rcpsp/j30.sm/j3042_2.sm nv: 48870 nc: 99579 enctime: 0.56
c File: j3042_2.smnaiveor10.wcnf
c optimal
c final solution cost: 48
c CPU time: 0.887016
s OPTIMUM FOUND

c File: j3042_2.smor10.wcnf
c optimal
c final solution cost: 48
c CPU time: 0.305791
s OPTIMUM FOUND


rcpsp/heur_output_or_constraints/Log=10/heurj30.txt
encoding rcpsp/j30.sm/j3042_3.sm nv: 148192 nc: 308303 enctime: 2.06
encoding rcpsp/j30.sm/j3042_3.sm nv: 53888 nc: 111183 enctime: 0.62
c File: j3042_3.smnaiveor10.wcnf
c optimal
c final solution cost: 60
c CPU time: 1.394937
s OPTIMUM FOUND

c File: j3042_3.smor10.wcnf
c optimal
c final solution cost: 60
c CPU time: 0.561006
s OPTIMUM FOUND


rcpsp/heur_output_or_constraints/Log=10/heurj30.txt
encoding rcpsp/j30.sm/j3042_4.sm nv: 107240 nc: 220933 enctime: 1.39
encoding rcpsp/j30.sm/j3042_4.sm nv: 37534 nc: 76698 enctime: 0.49
c File: j3042_4.smnaiveor10.wcnf
c optimal
c final solution cost: 47
c CPU time: 1.674433
s OPTIMUM FOUND

c File: j3042_4.smor10.wcnf
c optimal
c final solution cost: 47
c CPU time: 0.206550
s OPTIMUM FOUND


rcpsp/heur_output_or_constraints/Log=10/heurj30.txt
encoding rcpsp/j30.sm/j3042_5.sm nv: 145539 nc: 298216 enctime: 1.91
encoding rcpsp/j30.sm/j3042_5.sm nv: 50985 nc: 103702 enctime: 0.69
c File: j3042_5.smnaiveor10.wcnf
c optimal
c final solution cost: 49
c CPU time: 0.640426
s OPTIMUM FOUND

c File: j3042_5.smor10.wcnf
c optimal
c final solution cost: 49
c CPU time: 0.211463
s OPTIMUM FOUND


rcpsp/heur_output_or_constraints/Log=10/heurj30.txt
encoding rcpsp/j30.sm/j3042_6.sm nv: 139608 nc: 290548 enctime: 1.90
encoding rcpsp/j30.sm/j3042_6.sm nv: 57339 nc: 118585 enctime: 0.67
c File: j3042_6.smnaiveor10.wcnf
c optimal
c final solution cost: 66
c CPU time: 1.118046
s OPTIMUM FOUND

c File: j3042_6.smor10.wcnf
c optimal
c final solution cost: 66
c CPU time: 0.217328
s OPTIMUM FOUND


rcpsp/heur_output_or_constraints/Log=10/heurj30.txt
encoding rcpsp/j30.sm/j3042_7.sm nv: 133875 nc: 281039 enctime: 1.92
encoding rcpsp/j30.sm/j3042_7.sm nv: 52020 nc: 108341 enctime: 0.61
c File: j3042_7.smnaiveor10.wcnf
c optimal
c final solution cost: 60
c CPU time: 12.815675
s OPTIMUM FOUND

c File: j3042_7.smor10.wcnf
c optimal
c final solution cost: 60
c CPU time: 7.926893
s OPTIMUM FOUND


